p cnf 540 1461
1 2 3 4 5 6 7 8 9 10 11 12 13 14 15 16 17 18 19 20 0
21 22 23 24 25 26 27 28 29 30 31 32 33 34 35 36 37 38 39 40 0
41 42 43 44 45 46 47 48 49 50 51 52 53 54 55 56 57 58 59 60 0
61 62 63 64 65 66 67 68 69 70 71 72 73 74 75 76 77 78 79 80 0
81 82 83 84 85 86 87 88 89 90 91 92 93 94 95 96 97 98 99 100 0
101 102 103 104 105 106 107 108 109 110 111 112 113 114 115 116 117 118 119 120 0
128 129 130 131 132 133 134 135 136 137 138 139 140 121 122 123 124 125 126 127 0
141 142 143 144 145 146 147 148 149 150 151 152 153 154 155 156 157 158 159 160 0
161 162 163 164 165 166 167 168 169 170 171 172 173 174 175 176 177 178 179 180 0
181 182 183 184 185 186 187 188 189 190 191 192 193 194 195 196 197 198 199 200 0
201 202 203 204 205 206 207 208 209 210 211 212 213 214 215 216 217 218 219 220 0
221 222 223 224 225 226 227 228 229 230 231 232 233 234 235 236 237 238 239 240 0
256 257 258 259 260 241 242 243 244 245 246 247 248 249 250 251 252 253 254 255 0
261 262 263 264 265 266 267 268 269 270 271 272 273 274 275 276 277 278 279 280 0
281 282 283 284 285 286 287 288 289 290 291 292 293 294 295 296 297 298 299 300 0
301 302 303 304 305 306 307 308 309 310 311 312 313 314 315 316 317 318 319 320 0
321 322 323 324 325 326 327 328 329 330 331 332 333 334 335 336 337 338 339 340 0
341 342 343 344 345 346 347 348 349 350 351 352 353 354 355 356 357 358 359 360 0
361 362 363 364 365 366 367 368 369 370 371 372 373 374 375 376 377 378 379 380 0
384 385 386 387 388 389 390 391 392 393 394 395 396 397 398 399 400 381 382 383 0
401 402 403 404 405 406 407 408 409 410 411 412 413 414 415 416 417 418 419 420 0
-21 -1 0
-1 -41 0
-421 -1 0
-21 -41 0
-421 -21 0
-421 -41 0
-61 -81 0
-61 -101 0
-422 -61 0
-101 -81 0
-422 -81 0
-422 -101 0
-141 -121 0
-161 -121 0
-423 -121 0
-141 -161 0
-423 -141 0
-423 -161 0
-181 -201 0
-221 -181 0
-424 -181 0
-221 -201 0
-424 -201 0
-424 -221 0
-261 -241 0
-281 -241 0
-425 -241 0
-261 -281 0
-261 -425 0
-425 -281 0
-301 -321 0
-301 -341 0
-301 -426 0
-341 -321 0
-426 -321 0
-341 -426 0
-381 -361 0
-401 -361 0
421 -361 0
422 -361 0
423 -361 0
424 -361 0
425 -361 0
426 -361 0
-381 -401 0
-381 421 0
-381 422 0
-381 423 0
424 -381 0
425 -381 0
426 -381 0
421 -401 0
422 -401 0
423 -401 0
424 -401 0
425 -401 0
426 -401 0
421 422 0
421 423 0
424 421 0
425 421 0
426 421 0
422 423 0
424 422 0
425 422 0
426 422 0
424 423 0
425 423 0
426 423 0
424 425 0
424 426 0
425 426 0
-22 -2 0
-42 -2 0
-427 -2 0
-22 -42 0
-22 -427 0
-427 -42 0
-62 -82 0
-62 -102 0
-62 -428 0
-102 -82 0
-428 -82 0
-102 -428 0
-142 -122 0
-162 -122 0
-429 -122 0
-142 -162 0
-142 -429 0
-429 -162 0
-182 -202 0
-182 -222 0
-182 -430 0
-222 -202 0
-430 -202 0
-222 -430 0
-262 -242 0
-242 -282 0
-431 -242 0
-262 -282 0
-431 -262 0
-431 -282 0
-302 -322 0
-342 -302 0
-432 -302 0
-342 -322 0
-432 -322 0
-432 -342 0
-382 -362 0
-402 -362 0
427 -362 0
428 -362 0
429 -362 0
430 -362 0
-362 431 0
432 -362 0
-382 -402 0
-382 427 0
-382 428 0
-382 429 0
-382 430 0
-382 431 0
432 -382 0
427 -402 0
428 -402 0
429 -402 0
430 -402 0
-402 431 0
432 -402 0
427 428 0
427 429 0
427 430 0
427 431 0
432 427 0
428 429 0
428 430 0
428 431 0
432 428 0
429 430 0
429 431 0
432 429 0
430 431 0
432 430 0
432 431 0
-23 -3 0
-43 -3 0
-3 -433 0
-23 -43 0
-23 -433 0
-43 -433 0
-63 -83 0
-63 -103 0
-63 -434 0
-103 -83 0
-83 -434 0
-103 -434 0
-143 -123 0
-163 -123 0
-435 -123 0
-143 -163 0
-143 -435 0
-435 -163 0
-183 -203 0
-183 -223 0
-183 -436 0
-223 -203 0
-436 -203 0
-223 -436 0
-263 -243 0
-283 -243 0
-437 -243 0
-263 -283 0
-263 -437 0
-437 -283 0
-303 -323 0
-303 -343 0
-303 -438 0
-343 -323 0
-438 -323 0
-343 -438 0
-383 -363 0
-403 -363 0
433 -363 0
434 -363 0
435 -363 0
436 -363 0
-363 437 0
-363 438 0
-383 -403 0
-383 433 0
-383 434 0
-383 435 0
-383 436 0
-383 437 0
-383 438 0
433 -403 0
434 -403 0
435 -403 0
436 -403 0
-403 437 0
-403 438 0
433 434 0
433 435 0
433 436 0
433 437 0
433 438 0
434 435 0
434 436 0
434 437 0
434 438 0
435 436 0
435 437 0
435 438 0
436 437 0
436 438 0
437 438 0
-24 -4 0
-44 -4 0
-439 -4 0
-24 -44 0
-24 -439 0
-439 -44 0
-64 -84 0
-64 -104 0
-64 -440 0
-104 -84 0
-440 -84 0
-104 -440 0
-144 -124 0
-124 -164 0
-124 -441 0
-144 -164 0
-144 -441 0
-164 -441 0
-184 -204 0
-184 -224 0
-184 -442 0
-224 -204 0
-204 -442 0
-224 -442 0
-264 -244 0
-244 -284 0
-244 -443 0
-264 -284 0
-264 -443 0
-284 -443 0
-304 -324 0
-304 -344 0
-304 -444 0
-344 -324 0
-324 -444 0
-344 -444 0
-384 -364 0
-404 -364 0
-364 439 0
440 -364 0
441 -364 0
442 -364 0
443 -364 0
444 -364 0
-384 -404 0
-384 439 0
-384 440 0
-384 441 0
-384 442 0
-384 443 0
-384 444 0
-404 439 0
440 -404 0
441 -404 0
442 -404 0
443 -404 0
444 -404 0
440 439 0
441 439 0
442 439 0
443 439 0
444 439 0
440 441 0
440 442 0
440 443 0
440 444 0
441 442 0
441 443 0
441 444 0
442 443 0
442 444 0
443 444 0
-5 -25 0
-5 -45 0
-445 -5 0
-45 -25 0
-445 -25 0
-445 -45 0
-85 -65 0
-105 -65 0
-446 -65 0
-85 -105 0
-446 -85 0
-446 -105 0
-125 -145 0
-165 -125 0
-447 -125 0
-165 -145 0
-447 -145 0
-447 -165 0
-205 -185 0
-225 -185 0
-448 -185 0
-205 -225 0
-448 -205 0
-448 -225 0
-245 -265 0
-245 -285 0
-245 -449 0
-285 -265 0
-449 -265 0
-285 -449 0
-325 -305 0
-345 -305 0
-450 -305 0
-325 -345 0
-325 -450 0
-450 -345 0
-365 -385 0
-365 -405 0
-365 445 0
-365 446 0
-365 447 0
448 -365 0
449 -365 0
450 -365 0
-405 -385 0
445 -385 0
446 -385 0
447 -385 0
448 -385 0
449 -385 0
450 -385 0
-405 445 0
-405 446 0
-405 447 0
448 -405 0
449 -405 0
450 -405 0
445 446 0
445 447 0
448 445 0
449 445 0
450 445 0
446 447 0
448 446 0
449 446 0
450 446 0
448 447 0
449 447 0
450 447 0
448 449 0
448 450 0
449 450 0
-6 -26 0
-46 -6 0
-6 -451 0
-46 -26 0
-451 -26 0
-46 -451 0
-86 -66 0
-106 -66 0
-452 -66 0
-86 -106 0
-86 -452 0
-452 -106 0
-126 -146 0
-126 -166 0
-126 -453 0
-166 -146 0
-453 -146 0
-166 -453 0
-206 -186 0
-186 -226 0
-454 -186 0
-206 -226 0
-206 -454 0
-454 -226 0
-246 -266 0
-246 -286 0
-455 -246 0
-286 -266 0
-455 -266 0
-455 -286 0
-326 -306 0
-346 -306 0
-456 -306 0
-326 -346 0
-456 -326 0
-456 -346 0
-366 -386 0
-366 -406 0
-366 451 0
-366 452 0
-366 453 0
-366 454 0
-366 455 0
456 -366 0
-406 -386 0
451 -386 0
452 -386 0
453 -386 0
454 -386 0
-386 455 0
456 -386 0
-406 451 0
-406 452 0
-406 453 0
-406 454 0
-406 455 0
456 -406 0
451 452 0
451 453 0
451 454 0
451 455 0
456 451 0
452 453 0
452 454 0
452 455 0
456 452 0
453 454 0
453 455 0
456 453 0
454 455 0
456 454 0
456 455 0
-7 -27 0
-7 -47 0
-7 -457 0
-47 -27 0
-27 -457 0
-47 -457 0
-87 -67 0
-67 -107 0
-67 -458 0
-87 -107 0
-87 -458 0
-107 -458 0
-127 -147 0
-167 -127 0
-127 -459 0
-167 -147 0
-459 -147 0
-167 -459 0
-207 -187 0
-227 -187 0
-460 -187 0
-207 -227 0
-207 -460 0
-460 -227 0
-247 -267 0
-247 -287 0
-247 -461 0
-287 -267 0
-461 -267 0
-287 -461 0
-327 -307 0
-307 -347 0
-462 -307 0
-327 -347 0
-327 -462 0
-462 -347 0
-367 -387 0
-367 -407 0
-367 457 0
-367 458 0
-367 459 0
-367 460 0
-367 461 0
-367 462 0
-407 -387 0
457 -387 0
458 -387 0
459 -387 0
460 -387 0
461 -387 0
-387 462 0
-407 457 0
-407 458 0
-407 459 0
-407 460 0
-407 461 0
-407 462 0
457 458 0
457 459 0
457 460 0
457 461 0
457 462 0
458 459 0
458 460 0
458 461 0
458 462 0
459 460 0
459 461 0
459 462 0
460 461 0
460 462 0
461 462 0
-8 -28 0
-8 -48 0
-8 -463 0
-48 -28 0
-463 -28 0
-48 -463 0
-88 -68 0
-108 -68 0
-464 -68 0
-88 -108 0
-88 -464 0
-464 -108 0
-128 -148 0
-128 -168 0
-128 -465 0
-168 -148 0
-148 -465 0
-168 -465 0
-208 -188 0
-188 -228 0
-188 -466 0
-208 -228 0
-208 -466 0
-228 -466 0
-248 -268 0
-248 -288 0
-248 -467 0
-288 -268 0
-268 -467 0
-288 -467 0
-328 -308 0
-348 -308 0
-308 -468 0
-328 -348 0
-328 -468 0
-348 -468 0
-368 -388 0
-368 -408 0
-368 463 0
-368 464 0
-368 465 0
-368 466 0
-368 467 0
-368 468 0
-408 -388 0
-388 463 0
464 -388 0
465 -388 0
466 -388 0
467 -388 0
468 -388 0
-408 463 0
-408 464 0
-408 465 0
-408 466 0
-408 467 0
-408 468 0
464 463 0
465 463 0
466 463 0
467 463 0
468 463 0
464 465 0
464 466 0
464 467 0
464 468 0
465 466 0
465 467 0
465 468 0
466 467 0
466 468 0
467 468 0
-29 -9 0
-49 -9 0
-469 -9 0
-29 -49 0
-469 -29 0
-469 -49 0
-69 -89 0
-69 -109 0
-470 -69 0
-109 -89 0
-470 -89 0
-470 -109 0
-149 -129 0
-169 -129 0
-471 -129 0
-149 -169 0
-471 -149 0
-471 -169 0
-189 -209 0
-229 -189 0
-472 -189 0
-229 -209 0
-472 -209 0
-472 -229 0
-269 -249 0
-289 -249 0
-473 -249 0
-269 -289 0
-269 -473 0
-473 -289 0
-309 -329 0
-309 -349 0
-309 -474 0
-349 -329 0
-474 -329 0
-349 -474 0
-389 -369 0
-409 -369 0
469 -369 0
470 -369 0
471 -369 0
472 -369 0
473 -369 0
474 -369 0
-389 -409 0
-389 469 0
-389 470 0
-389 471 0
472 -389 0
473 -389 0
474 -389 0
469 -409 0
470 -409 0
471 -409 0
472 -409 0
473 -409 0
474 -409 0
469 470 0
469 471 0
472 469 0
473 469 0
474 469 0
470 471 0
472 470 0
473 470 0
474 470 0
472 471 0
473 471 0
474 471 0
472 473 0
472 474 0
473 474 0
-30 -10 0
-50 -10 0
-475 -10 0
-30 -50 0
-30 -475 0
-475 -50 0
-70 -90 0
-70 -110 0
-70 -476 0
-110 -90 0
-476 -90 0
-110 -476 0
-150 -130 0
-170 -130 0
-477 -130 0
-150 -170 0
-150 -477 0
-477 -170 0
-190 -210 0
-190 -230 0
-190 -478 0
-230 -210 0
-478 -210 0
-230 -478 0
-270 -250 0
-290 -250 0
-479 -250 0
-270 -290 0
-479 -270 0
-479 -290 0
-310 -330 0
-350 -310 0
-480 -310 0
-350 -330 0
-480 -330 0
-480 -350 0
-390 -370 0
-410 -370 0
475 -370 0
476 -370 0
477 -370 0
478 -370 0
-370 479 0
480 -370 0
-390 -410 0
-390 475 0
-390 476 0
-390 477 0
-390 478 0
-390 479 0
480 -390 0
475 -410 0
476 -410 0
477 -410 0
478 -410 0
-410 479 0
480 -410 0
475 476 0
475 477 0
475 478 0
475 479 0
480 475 0
476 477 0
476 478 0
476 479 0
480 476 0
477 478 0
477 479 0
480 477 0
478 479 0
480 478 0
480 479 0
-31 -11 0
-51 -11 0
-11 -481 0
-31 -51 0
-31 -481 0
-51 -481 0
-71 -91 0
-71 -111 0
-71 -482 0
-111 -91 0
-91 -482 0
-111 -482 0
-151 -131 0
-171 -131 0
-483 -131 0
-151 -171 0
-151 -483 0
-483 -171 0
-191 -211 0
-191 -231 0
-191 -484 0
-231 -211 0
-484 -211 0
-231 -484 0
-271 -251 0
-291 -251 0
-485 -251 0
-271 -291 0
-271 -485 0
-485 -291 0
-311 -331 0
-311 -351 0
-311 -486 0
-351 -331 0
-486 -331 0
-351 -486 0
-391 -371 0
-411 -371 0
481 -371 0
482 -371 0
483 -371 0
484 -371 0
485 -371 0
-371 486 0
-391 -411 0
-391 481 0
-391 482 0
-391 483 0
-391 484 0
-391 485 0
-391 486 0
481 -411 0
482 -411 0
483 -411 0
484 -411 0
485 -411 0
-411 486 0
481 482 0
481 483 0
481 484 0
481 485 0
481 486 0
482 483 0
482 484 0
482 485 0
482 486 0
483 484 0
483 485 0
483 486 0
484 485 0
484 486 0
485 486 0
-32 -12 0
-52 -12 0
-487 -12 0
-32 -52 0
-32 -487 0
-487 -52 0
-72 -92 0
-72 -112 0
-72 -488 0
-112 -92 0
-488 -92 0
-112 -488 0
-152 -132 0
-132 -172 0
-132 -489 0
-152 -172 0
-152 -489 0
-172 -489 0
-192 -212 0
-192 -232 0
-192 -490 0
-232 -212 0
-212 -490 0
-232 -490 0
-272 -252 0
-292 -252 0
-252 -491 0
-272 -292 0
-272 -491 0
-292 -491 0
-312 -332 0
-312 -352 0
-312 -492 0
-352 -332 0
-332 -492 0
-352 -492 0
-392 -372 0
-412 -372 0
-372 487 0
488 -372 0
489 -372 0
490 -372 0
491 -372 0
-372 492 0
-392 -412 0
-392 487 0
-392 488 0
-392 489 0
-392 490 0
-392 491 0
-392 492 0
-412 487 0
488 -412 0
489 -412 0
490 -412 0
491 -412 0
-412 492 0
488 487 0
489 487 0
490 487 0
491 487 0
492 487 0
488 489 0
488 490 0
488 491 0
488 492 0
489 490 0
489 491 0
489 492 0
490 491 0
490 492 0
491 492 0
-13 -33 0
-13 -53 0
-493 -13 0
-53 -33 0
-493 -33 0
-493 -53 0
-93 -73 0
-113 -73 0
-494 -73 0
-93 -113 0
-494 -93 0
-494 -113 0
-133 -153 0
-173 -133 0
-495 -133 0
-173 -153 0
-495 -153 0
-495 -173 0
-213 -193 0
-233 -193 0
-496 -193 0
-213 -233 0
-496 -213 0
-496 -233 0
-253 -273 0
-253 -293 0
-253 -497 0
-293 -273 0
-497 -273 0
-293 -497 0
-333 -313 0
-353 -313 0
-498 -313 0
-333 -353 0
-333 -498 0
-498 -353 0
-373 -393 0
-373 -413 0
-373 493 0
-373 494 0
-373 495 0
496 -373 0
497 -373 0
498 -373 0
-413 -393 0
493 -393 0
494 -393 0
495 -393 0
496 -393 0
497 -393 0
498 -393 0
-413 493 0
-413 494 0
-413 495 0
496 -413 0
497 -413 0
498 -413 0
493 494 0
493 495 0
496 493 0
497 493 0
498 493 0
494 495 0
496 494 0
497 494 0
498 494 0
496 495 0
497 495 0
498 495 0
496 497 0
496 498 0
497 498 0
-14 -34 0
-54 -14 0
-14 -499 0
-54 -34 0
-499 -34 0
-54 -499 0
-94 -74 0
-114 -74 0
-500 -74 0
-94 -114 0
-94 -500 0
-500 -114 0
-134 -154 0
-134 -174 0
-134 -501 0
-174 -154 0
-501 -154 0
-174 -501 0
-214 -194 0
-194 -234 0
-502 -194 0
-214 -234 0
-214 -502 0
-502 -234 0
-254 -274 0
-294 -254 0
-503 -254 0
-294 -274 0
-503 -274 0
-503 -294 0
-334 -314 0
-354 -314 0
-504 -314 0
-334 -354 0
-504 -334 0
-504 -354 0
-374 -394 0
-374 -414 0
-374 499 0
-374 500 0
-374 501 0
-374 502 0
-374 503 0
504 -374 0
-414 -394 0
499 -394 0
500 -394 0
501 -394 0
-394 502 0
-394 503 0
504 -394 0
-414 499 0
-414 500 0
-414 501 0
-414 502 0
-414 503 0
504 -414 0
499 500 0
499 501 0
499 502 0
499 503 0
504 499 0
500 501 0
500 502 0
500 503 0
504 500 0
501 502 0
501 503 0
504 501 0
502 503 0
504 502 0
504 503 0
-15 -35 0
-15 -55 0
-15 -505 0
-55 -35 0
-35 -505 0
-55 -505 0
-95 -75 0
-75 -115 0
-75 -506 0
-95 -115 0
-95 -506 0
-115 -506 0
-135 -155 0
-175 -135 0
-135 -507 0
-175 -155 0
-507 -155 0
-175 -507 0
-215 -195 0
-235 -195 0
-508 -195 0
-215 -235 0
-215 -508 0
-508 -235 0
-255 -275 0
-255 -295 0
-255 -509 0
-295 -275 0
-509 -275 0
-295 -509 0
-335 -315 0
-315 -355 0
-510 -315 0
-335 -355 0
-335 -510 0
-510 -355 0
-375 -395 0
-375 -415 0
-375 505 0
-375 506 0
-375 507 0
-375 508 0
-375 509 0
-375 510 0
-415 -395 0
505 -395 0
506 -395 0
507 -395 0
508 -395 0
509 -395 0
-395 510 0
-415 505 0
-415 506 0
-415 507 0
-415 508 0
-415 509 0
-415 510 0
505 506 0
505 507 0
505 508 0
505 509 0
505 510 0
506 507 0
506 508 0
506 509 0
506 510 0
507 508 0
507 509 0
507 510 0
508 509 0
508 510 0
509 510 0
-16 -36 0
-16 -56 0
-16 -511 0
-56 -36 0
-511 -36 0
-56 -511 0
-96 -76 0
-116 -76 0
-512 -76 0
-96 -116 0
-96 -512 0
-512 -116 0
-136 -156 0
-136 -176 0
-136 -513 0
-176 -156 0
-156 -513 0
-176 -513 0
-216 -196 0
-196 -236 0
-196 -514 0
-216 -236 0
-216 -514 0
-236 -514 0
-256 -276 0
-256 -296 0
-256 -515 0
-296 -276 0
-276 -515 0
-296 -515 0
-336 -316 0
-356 -316 0
-316 -516 0
-336 -356 0
-336 -516 0
-356 -516 0
-376 -396 0
-376 -416 0
-376 511 0
-376 512 0
-376 513 0
-376 514 0
-376 515 0
-376 516 0
-416 -396 0
-396 511 0
512 -396 0
513 -396 0
514 -396 0
515 -396 0
-396 516 0
-416 511 0
-416 512 0
-416 513 0
-416 514 0
-416 515 0
-416 516 0
512 511 0
513 511 0
514 511 0
515 511 0
516 511 0
512 513 0
512 514 0
512 515 0
512 516 0
513 514 0
513 515 0
513 516 0
514 515 0
514 516 0
515 516 0
-37 -17 0
-57 -17 0
-517 -17 0
-37 -57 0
-37 -517 0
-517 -57 0
-77 -97 0
-77 -117 0
-518 -77 0
-117 -97 0
-518 -97 0
-518 -117 0
-157 -137 0
-177 -137 0
-519 -137 0
-157 -177 0
-519 -157 0
-519 -177 0
-197 -217 0
-237 -197 0
-520 -197 0
-237 -217 0
-520 -217 0
-520 -237 0
-277 -257 0
-297 -257 0
-521 -257 0
-277 -297 0
-277 -521 0
-521 -297 0
-317 -337 0
-317 -357 0
-317 -522 0
-357 -337 0
-522 -337 0
-357 -522 0
-397 -377 0
-417 -377 0
517 -377 0
518 -377 0
519 -377 0
520 -377 0
521 -377 0
522 -377 0
-397 -417 0
-397 517 0
-397 518 0
-397 519 0
520 -397 0
521 -397 0
522 -397 0
517 -417 0
518 -417 0
519 -417 0
520 -417 0
521 -417 0
522 -417 0
517 518 0
517 519 0
520 517 0
521 517 0
522 517 0
518 519 0
520 518 0
521 518 0
522 518 0
520 519 0
521 519 0
522 519 0
520 521 0
520 522 0
521 522 0
-38 -18 0
-58 -18 0
-523 -18 0
-38 -58 0
-38 -523 0
-523 -58 0
-78 -98 0
-78 -118 0
-78 -524 0
-118 -98 0
-524 -98 0
-118 -524 0
-158 -138 0
-178 -138 0
-525 -138 0
-158 -178 0
-158 -525 0
-525 -178 0
-198 -218 0
-198 -238 0
-198 -526 0
-238 -218 0
-526 -218 0
-238 -526 0
-278 -258 0
-298 -258 0
-527 -258 0
-278 -298 0
-527 -278 0
-527 -298 0
-318 -338 0
-318 -358 0
-528 -318 0
-358 -338 0
-528 -338 0
-528 -358 0
-398 -378 0
-418 -378 0
523 -378 0
524 -378 0
525 -378 0
-378 526 0
-378 527 0
528 -378 0
-398 -418 0
-398 523 0
-398 524 0
-398 525 0
-398 526 0
-398 527 0
528 -398 0
523 -418 0
524 -418 0
525 -418 0
-418 526 0
-418 527 0
528 -418 0
523 524 0
523 525 0
523 526 0
523 527 0
528 523 0
524 525 0
524 526 0
524 527 0
528 524 0
525 526 0
525 527 0
528 525 0
526 527 0
528 526 0
528 527 0
-39 -19 0
-59 -19 0
-19 -529 0
-39 -59 0
-39 -529 0
-59 -529 0
-79 -99 0
-79 -119 0
-79 -530 0
-119 -99 0
-99 -530 0
-119 -530 0
-159 -139 0
-179 -139 0
-531 -139 0
-159 -179 0
-159 -531 0
-531 -179 0
-199 -219 0
-199 -239 0
-199 -532 0
-239 -219 0
-532 -219 0
-239 -532 0
-279 -259 0
-299 -259 0
-533 -259 0
-279 -299 0
-279 -533 0
-533 -299 0
-319 -339 0
-319 -359 0
-319 -534 0
-359 -339 0
-534 -339 0
-359 -534 0
-399 -379 0
-419 -379 0
529 -379 0
530 -379 0
531 -379 0
532 -379 0
533 -379 0
-379 534 0
-399 -419 0
-399 529 0
-399 530 0
-399 531 0
-399 532 0
-399 533 0
-399 534 0
529 -419 0
530 -419 0
531 -419 0
532 -419 0
533 -419 0
-419 534 0
529 530 0
529 531 0
529 532 0
529 533 0
529 534 0
530 531 0
530 532 0
530 533 0
530 534 0
531 532 0
531 533 0
531 534 0
532 533 0
532 534 0
533 534 0
-40 -20 0
-60 -20 0
-535 -20 0
-40 -60 0
-40 -535 0
-535 -60 0
-80 -100 0
-80 -120 0
-80 -536 0
-120 -100 0
-536 -100 0
-120 -536 0
-160 -140 0
-140 -180 0
-140 -537 0
-160 -180 0
-160 -537 0
-180 -537 0
-200 -220 0
-200 -240 0
-200 -538 0
-240 -220 0
-220 -538 0
-240 -538 0
-280 -260 0
-300 -260 0
-260 -539 0
-280 -300 0
-280 -539 0
-300 -539 0
-320 -340 0
-320 -360 0
-320 -540 0
-360 -340 0
-340 -540 0
-360 -540 0
-400 -380 0
-380 -420 0
-380 535 0
536 -380 0
537 -380 0
538 -380 0
539 -380 0
-380 540 0
-400 -420 0
-400 535 0
-400 536 0
-400 537 0
-400 538 0
-400 539 0
-400 540 0
-420 535 0
536 -420 0
537 -420 0
538 -420 0
539 -420 0
-420 540 0
536 535 0
537 535 0
538 535 0
539 535 0
540 535 0
536 537 0
536 538 0
536 539 0
536 540 0
537 538 0
537 539 0
537 540 0
538 539 0
538 540 0
539 540 0
